c 3 - XORSAT
p cnf 10 40
-6 -8 -9 0
-6 8 9 0
6 -8 9 0
6 8 -9 0
-3 -7 -8 0
-3 7 8 0
3 -7 8 0
3 7 -8 0
7 10 5 0
-7 -10 5 0
-7 10 -5 0
7 -10 -5 0
2 3 6 0
-2 -3 6 0
-2 3 -6 0
2 -3 -6 0
-1 -4 -10 0
-1 4 10 0
1 -4 10 0
1 4 -10 0
-2 -4 -5 0
-2 4 5 0
2 -4 5 0
2 4 -5 0
-1 -4 -10 0
-1 4 10 0
1 -4 10 0
1 4 -10 0
-1 -5 -7 0
-1 5 7 0
1 -5 7 0
1 5 -7 0
-6 -8 -9 0
-6 8 9 0
6 -8 9 0
6 8 -9 0
2 3 9 0
-2 -3 9 0
-2 3 -9 0
2 -3 -9 0
